Code/Rooms/2nwalls20-5.dzn
n = 20;

R =
[|0,0,0,5,0,0,0,0,0,0,0,0,0,0,0,2,2,0,0,0,
 |0,1,0,5,0,9,0,0,0,3,3,3,0,8,0,0,0,0,0,0,
 |0,1,0,5,0,9,0,2,0,0,5,7,0,8,0,0,6,5,6,0,
 |0,9,0,5,0,9,2,2,0,0,5,7,5,8,0,0,6,5,6,0,
 |0,9,0,5,0,9,2,0,0,0,5,7,5,8,0,0,6,5,6,0,
 |0,9,0,0,0,9,2,2,0,3,5,7,5,8,0,0,6,5,6,0,
 |0,9,0,0,0,9,0,0,0,3,5,7,5,8,0,0,6,5,6,0,
 |1,9,5,0,0,9,0,0,0,3,0,7,5,8,0,2,6,0,6,0,
 |0,9,5,0,1,9,0,0,0,0,0,7,0,8,10,2,0,0,0,0,
 |0,9,5,0,0,9,0,0,0,0,0,0,0,0,10,0,0,0,0,0,
 |0,9,5,0,0,0,0,0,0,0,0,0,9,0,10,9,0,0,0,0,
 |2,9,5,3,0,0,0,0,0,0,0,1,9,0,10,9,0,5,8,0,
 |2,0,0,3,4,4,4,4,0,0,0,0,9,0,10,9,0,5,8,0,
 |0,0,0,3,0,5,5,5,5,5,0,0,9,0,10,9,0,5,8,0,
 |0,0,3,3,3,0,0,0,0,0,0,0,9,0,10,9,0,5,8,4,
 |0,0,0,0,4,4,4,4,0,0,0,0,9,0,10,9,0,5,8,4,
 |0,0,0,0,5,5,5,5,5,2,0,0,9,0,10,9,0,0,8,4,
 |2,2,0,0,0,0,0,0,0,2,0,0,9,0,10,9,0,0,8,4,
 |0,0,0,0,0,0,0,0,0,0,0,0,9,0,0,9,0,0,8,0,
 |0,1,0,0,0,0,0,8,8,8,8,8,8,8,8,0,0,0,0,0,
 |];

