Code/Walks/2nwalls20-5.txt
1 1 1 W 1 1 1 1 1 1 1 1 1 1 1 W W . . . 
. W 1 W 1 W . . . W W W . W 1 1 1 1 1 1 
. W 1 W 1 W . W . . W W . W . . W W W 1 
. W 1 W 1 W W W . . W W W W . . W W W 1 
. W 1 W 1 W W . . . W W W W . . W W W 1 
. W 1 1 1 W W W . W W W W W . . W W W 1 
. W . . . W . . . W W W W W . . W W W 1 
W W W . . W . . . W . W W W . W W . W 1 
. W W . W W . . . . . W . W W W 1 1 1 1 
. W W . . W . . . . . . . . W . 1 . . . 
. W W . . . . . . . . . W . W W 1 . . . 
W W W W . . . . . . . W W . W W 1 W W . 
W . . W W W W W . . . . W . W W 1 W W . 
. . . W . W W W W W . . W . W W 1 W W . 
. . W W W . . . . . . . W . W W 1 W W W 
. . . . W W W W . . . . W . W W 1 W W W 
. . . . W W W W W W . . W . W W 1 . W W 
W W . . . . . . . W . . W . W W 1 . W W 
. . . . . . . . . . . . W . . W 1 . W . 
. W . . . . . W W W W W W W W . 1 1 1 1 
Length: 55, turns: 10
% time elapsed: 1.34 s
----------
==========
% time elapsed: 1.34 s
